(set-logic QF_LRA)
(declare-fun x0 () Real)
(declare-fun x1 () Real)
(declare-fun x2 () Real)
(declare-fun x3 () Real)
(declare-fun x4 () Real)
(declare-fun x5 () Real)
(declare-fun x6 () Real)
(declare-fun x7 () Real)
(declare-fun x8 () Real)
(declare-fun x9 () Real)
(declare-fun A0 () Bool)
(declare-fun A2 () Bool)
(declare-fun A4 () Bool)
(declare-fun A5 () Bool)
(declare-fun A6 () Bool)
(declare-fun A8 () Bool)
(declare-fun A9 () Bool)
(assert (let ((.def_0 (not A6))) (let ((.def_1 (* (/ 515526359003467 562949953421312) x3))) (let ((.def_2 (* (- (/ 361869161878901 4503599627370496)) x1))) (let ((.def_3 (+ .def_2 .def_1))) (let ((.def_4 (< .def_3 (/ 2554282133981329 2251799813685248)))) (let ((.def_5 (not .def_4))) (let ((.def_6 (and .def_5 .def_0))) (let ((.def_7 (not .def_6))) (let ((.def_8 (* (- (/ 1699509351289215 4503599627370496)) x6))) (let ((.def_9 (* (- (/ 3820459253483657 4503599627370496)) x4))) (let ((.def_10 (* (/ 730564422842951 2251799813685248) x0))) (let ((.def_11 (* (/ 1977370408160951 2251799813685248) x8))) (let ((.def_12 (* (/ 1047578542203917 2251799813685248) x3))) (let ((.def_13 (* (/ 3454992822783349 4503599627370496) x7))) (let ((.def_14 (* (/ 2939494554941097 4503599627370496) x5))) (let ((.def_15 (* (- (/ 569225284368797 1125899906842624)) x2))) (let ((.def_16 (+ .def_15 .def_14 .def_13 .def_12 .def_11 .def_10 .def_9 .def_8))) (let ((.def_17 (< .def_16 (- (/ 3206828498050713 562949953421312))))) (let ((.def_18 (not A5))) (let ((.def_19 (or .def_18 .def_17))) (let ((.def_20 (or .def_19 .def_7))) (let ((.def_21 (not .def_20))) (let ((.def_22 (not A2))) (let ((.def_23 (* (- (/ 244437422269941 281474976710656)) x7))) (let ((.def_24 (* (/ 3446768389989379 4503599627370496) x4))) (let ((.def_25 (* (/ 19095026041719 281474976710656) x5))) (let ((.def_26 (+ .def_25 .def_24 .def_23))) (let ((.def_27 (< .def_26 (- (/ 2765792062716579 1125899906842624))))) (let ((.def_28 (not .def_27))) (let ((.def_29 (or .def_28 .def_22))) (let ((.def_30 (not A0))) (let ((.def_31 (* (- (/ 862831701169651 2251799813685248)) x1))) (let ((.def_32 (* (/ 2127867826011943 4503599627370496) x0))) (let ((.def_33 (* (/ 77038197966589 4503599627370496) x6))) (let ((.def_34 (* (/ 2939068989824753 4503599627370496) x4))) (let ((.def_35 (* (- (/ 956604707100819 4503599627370496)) x3))) (let ((.def_36 (+ .def_35 .def_34 .def_33 .def_32 .def_31))) (let ((.def_37 (< .def_36 (- (/ 3059861986402809 1125899906842624))))) (let ((.def_38 (and .def_37 .def_30))) (let ((.def_39 (and .def_38 .def_29))) (let ((.def_40 (and .def_39 .def_21))) (let ((.def_41 (not .def_40))) (let ((.def_42 (not A8))) (let ((.def_43 (not A4))) (let ((.def_44 (and .def_43 .def_42))) (let ((.def_45 (not .def_44))) (let ((.def_46 (* (- (/ 728008447756925 1125899906842624)) x5))) (let ((.def_47 (* (- (/ 3769328405281323 4503599627370496)) x1))) (let ((.def_48 (* (- (/ 2263313344558021 4503599627370496)) x8))) (let ((.def_49 (+ .def_48 .def_47 .def_46))) (let ((.def_50 (< .def_49 (- (/ 6903579306666825 4503599627370496))))) (let ((.def_51 (and A2 .def_50))) (let ((.def_52 (or .def_51 .def_45))) (let ((.def_53 (* (/ 132896546784869 4503599627370496) x8))) (let ((.def_54 (* (- (/ 631479605577361 2251799813685248)) x4))) (let ((.def_55 (* (/ 827582589808109 4503599627370496) x9))) (let ((.def_56 (* (- (/ 335191235492871 4503599627370496)) x3))) (let ((.def_57 (* (- (/ 253794173376647 4503599627370496)) x0))) (let ((.def_58 (+ .def_57 .def_56 .def_55 .def_54 .def_53))) (let ((.def_59 (< .def_58 (/ 1127832765438033 562949953421312)))) (let ((.def_60 (not .def_59))) (let ((.def_61 (and A9 .def_60))) (let ((.def_62 (not .def_61))) (let ((.def_63 (and .def_22 .def_30))) (let ((.def_64 (and .def_63 .def_62))) (let ((.def_65 (not .def_64))) (let ((.def_66 (or .def_65 .def_52))) (let ((.def_67 (not .def_66))) (let ((.def_68 (and .def_67 .def_41))) (let ((.def_69 (not .def_68))) (let ((.def_70 (<= x9 1.0))) (let ((.def_71 (<= 0.0 x9))) (let ((.def_72 (<= x8 1.0))) (let ((.def_73 (<= 0.0 x8))) (let ((.def_74 (<= x7 1.0))) (let ((.def_75 (<= 0.0 x7))) (let ((.def_76 (<= x6 1.0))) (let ((.def_77 (<= 0.0 x6))) (let ((.def_78 (<= x5 1.0))) (let ((.def_79 (<= 0.0 x5))) (let ((.def_80 (<= x4 1.0))) (let ((.def_81 (<= 0.0 x4))) (let ((.def_82 (<= x3 1.0))) (let ((.def_83 (<= 0.0 x3))) (let ((.def_84 (<= x2 1.0))) (let ((.def_85 (<= 0.0 x2))) (let ((.def_86 (<= x1 1.0))) (let ((.def_87 (<= 0.0 x1))) (let ((.def_88 (<= x0 1.0))) (let ((.def_89 (<= 0.0 x0))) (let ((.def_90 (and .def_89 .def_88 .def_87 .def_86 .def_85 .def_84 .def_83 .def_82 .def_81 .def_80 .def_79 .def_78 .def_77 .def_76 .def_75 .def_74 .def_73 .def_72 .def_71 .def_70 .def_69))) .def_90))))))))))))))))))))))))))))))))))))))))))))))))))))))))))))))))))))))))))))))))))))))))))))
(check-sat)
